14
0  25  41  19  57  23  44  12  50  30  17  39  26  48
32  0  18  55  27  41  12  46  21  57  14  49  28  33
48  29  0  36  20  55  31  19  40  22  50  17  43  28
22  35  41  0  59  16  27  38  12  44  25  30  19  36
39  27  15  52  0  33  21  47  29  18  41  12  55  23
14  42  28  36  24  0  49  11  57  31  18  43  29  37
51  17  46  22  38  25  0  32  19  48  26  14  41  33
12  31  20  43  16  39  21  0  55  28  17  36  24  40
47  19  41  15  33  12  50  22  0  35  29  18  53  27
28  55  23  36  17  44  12  39  20  0  41  25  31  14
19  32  15  40  21  50  28  13  47  24  0  36  22  49
35  18  39  12  55  29  14  41  20  37  23  0  48  31
22  44  28  19  36  12  40  24  53  18  31  29  0  35
41  21  33  27  15  37  18  50  12  39  25  34  23  0